min: 73 x1_1 + 85 x1_2 + 93 x1_3 + 18 x2_1 + 5 x2_2 + 17 x2_3;

x1_1 + x1_2 + x1_3 = 57;
x2_1 + x2_2 + x2_3 = 69;

x1_1 + x2_1 = 92;
x1_2 + x2_2 = 30;
x1_3 + x2_3 = 4;

int x1_1, x1_2, x1_3, x2_1, x2_2, x2_3;